p cnf 289 1068
6 0
11 0
16 0
21 0
12 0
17 0
22 0
18 0
23 0
24 0
-6 -12 11 0
-6 -17 16 0
-6 -22 21 0
-11 -8 6 0
-11 -18 16 0
-11 -23 21 0
-16 -9 6 0
-16 -14 11 0
-16 -24 21 0
-21 -10 6 0
-21 -15 11 0
-21 -20 16 0
-2 -11 12 0
-2 -16 17 0
-2 -21 22 0
-12 -3 2 0
-12 -18 17 0
-12 -23 22 0
-17 -4 2 0
-17 -14 12 0
-17 -24 22 0
-22 -5 2 0
-22 -15 12 0
-22 -20 17 0
-3 -6 8 0
-3 -16 18 0
-3 -21 23 0
-8 -2 3 0
-8 -17 18 0
-8 -22 23 0
-18 -4 3 0
-18 -9 8 0
-18 -24 23 0
-23 -5 3 0
-23 -10 8 0
-23 -20 18 0
-4 -6 9 0
-4 -11 14 0
-4 -21 24 0
-9 -2 4 0
-9 -12 14 0
-9 -22 24 0
-14 -3 4 0
-14 -8 9 0
-14 -23 24 0
-24 -5 4 0
-24 -10 9 0
-24 -15 14 0
-5 -6 10 0
-5 -11 15 0
-5 -16 20 0
-10 -2 5 0
-10 -12 15 0
-10 -17 20 0
-15 -3 5 0
-15 -8 10 0
-15 -18 20 0
-20 -4 5 0
-20 -9 10 0
-20 -14 15 0
-31 -37 36 0
-31 -42 41 0
-31 -47 46 0
-36 -33 31 0
-36 -43 41 0
-36 -48 46 0
-41 -34 31 0
-41 -39 36 0
-41 -49 46 0
-46 -35 31 0
-46 -40 36 0
-46 -45 41 0
-27 -36 37 0
-27 -41 42 0
-27 -46 47 0
-37 -28 27 0
-37 -43 42 0
-37 -48 47 0
-42 -29 27 0
-42 -39 37 0
-42 -49 47 0
-47 -30 27 0
-47 -40 37 0
-47 -45 42 0
-28 -31 33 0
-28 -41 43 0
-28 -46 48 0
-33 -27 28 0
-33 -42 43 0
-33 -47 48 0
-43 -29 28 0
-43 -34 33 0
-43 -49 48 0
-48 -30 28 0
-48 -35 33 0
-48 -45 43 0
-29 -31 34 0
-29 -36 39 0
-29 -46 49 0
-34 -27 29 0
-34 -37 39 0
-34 -47 49 0
-39 -28 29 0
-39 -33 34 0
-39 -48 49 0
-49 -30 29 0
-49 -35 34 0
-49 -40 39 0
-30 -31 35 0
-30 -36 40 0
-30 -41 45 0
-35 -27 30 0
-35 -37 40 0
-35 -42 45 0
-40 -28 30 0
-40 -33 35 0
-40 -43 45 0
-45 -29 30 0
-45 -34 35 0
-45 -39 40 0
-56 -62 61 0
-56 -67 66 0
-56 -72 71 0
-61 -58 56 0
-61 -68 66 0
-61 -73 71 0
-66 -59 56 0
-66 -64 61 0
-66 -74 71 0
-71 -60 56 0
-71 -65 61 0
-71 -70 66 0
-52 -61 62 0
-52 -66 67 0
-52 -71 72 0
-62 -53 52 0
-62 -68 67 0
-62 -73 72 0
-67 -54 52 0
-67 -64 62 0
-67 -74 72 0
-72 -55 52 0
-72 -65 62 0
-72 -70 67 0
-53 -56 58 0
-53 -66 68 0
-53 -71 73 0
-58 -52 53 0
-58 -67 68 0
-58 -72 73 0
-68 -54 53 0
-68 -59 58 0
-68 -74 73 0
-73 -55 53 0
-73 -60 58 0
-73 -70 68 0
-54 -56 59 0
-54 -61 64 0
-54 -71 74 0
-59 -52 54 0
-59 -62 64 0
-59 -72 74 0
-64 -53 54 0
-64 -58 59 0
-64 -73 74 0
-74 -55 54 0
-74 -60 59 0
-74 -65 64 0
-55 -56 60 0
-55 -61 65 0
-55 -66 70 0
-60 -52 55 0
-60 -62 65 0
-60 -67 70 0
-65 -53 55 0
-65 -58 60 0
-65 -68 70 0
-70 -54 55 0
-70 -59 60 0
-70 -64 65 0
-81 -87 86 0
-81 -92 91 0
-81 -97 96 0
-86 -83 81 0
-86 -93 91 0
-86 -98 96 0
-91 -84 81 0
-91 -89 86 0
-91 -99 96 0
-96 -85 81 0
-96 -90 86 0
-96 -95 91 0
-77 -86 87 0
-77 -91 92 0
-77 -96 97 0
-87 -78 77 0
-87 -93 92 0
-87 -98 97 0
-92 -79 77 0
-92 -89 87 0
-92 -99 97 0
-97 -80 77 0
-97 -90 87 0
-97 -95 92 0
-78 -81 83 0
-78 -91 93 0
-78 -96 98 0
-83 -77 78 0
-83 -92 93 0
-83 -97 98 0
-93 -79 78 0
-93 -84 83 0
-93 -99 98 0
-98 -80 78 0
-98 -85 83 0
-98 -95 93 0
-79 -81 84 0
-79 -86 89 0
-79 -96 99 0
-84 -77 79 0
-84 -87 89 0
-84 -97 99 0
-89 -78 79 0
-89 -83 84 0
-89 -98 99 0
-99 -80 79 0
-99 -85 84 0
-99 -90 89 0
-80 -81 85 0
-80 -86 90 0
-80 -91 95 0
-85 -77 80 0
-85 -87 90 0
-85 -92 95 0
-90 -78 80 0
-90 -83 85 0
-90 -93 95 0
-95 -79 80 0
-95 -84 85 0
-95 -89 90 0
-106 -112 111 0
-106 -117 116 0
-106 -122 121 0
-111 -108 106 0
-111 -118 116 0
-111 -123 121 0
-116 -109 106 0
-116 -114 111 0
-116 -124 121 0
-121 -110 106 0
-121 -115 111 0
-121 -120 116 0
-102 -111 112 0
-102 -116 117 0
-102 -121 122 0
-112 -103 102 0
-112 -118 117 0
-112 -123 122 0
-117 -104 102 0
-117 -114 112 0
-117 -124 122 0
-122 -105 102 0
-122 -115 112 0
-122 -120 117 0
-103 -106 108 0
-103 -116 118 0
-103 -121 123 0
-108 -102 103 0
-108 -117 118 0
-108 -122 123 0
-118 -104 103 0
-118 -109 108 0
-118 -124 123 0
-123 -105 103 0
-123 -110 108 0
-123 -120 118 0
-104 -106 109 0
-104 -111 114 0
-104 -121 124 0
-109 -102 104 0
-109 -112 114 0
-109 -122 124 0
-114 -103 104 0
-114 -108 109 0
-114 -123 124 0
-124 -105 104 0
-124 -110 109 0
-124 -115 114 0
-105 -106 110 0
-105 -111 115 0
-105 -116 120 0
-110 -102 105 0
-110 -112 115 0
-110 -117 120 0
-115 -103 105 0
-115 -108 110 0
-115 -118 120 0
-120 -104 105 0
-120 -109 110 0
-120 -114 115 0
-131 -137 136 0
-131 -142 141 0
-131 -147 146 0
-136 -133 131 0
-136 -143 141 0
-136 -148 146 0
-141 -134 131 0
-141 -139 136 0
-141 -149 146 0
-146 -135 131 0
-146 -140 136 0
-146 -145 141 0
-127 -136 137 0
-127 -141 142 0
-127 -146 147 0
-137 -128 127 0
-137 -143 142 0
-137 -148 147 0
-142 -129 127 0
-142 -139 137 0
-142 -149 147 0
-147 -130 127 0
-147 -140 137 0
-147 -145 142 0
-128 -131 133 0
-128 -141 143 0
-128 -146 148 0
-133 -127 128 0
-133 -142 143 0
-133 -147 148 0
-143 -129 128 0
-143 -134 133 0
-143 -149 148 0
-148 -130 128 0
-148 -135 133 0
-148 -145 143 0
-129 -131 134 0
-129 -136 139 0
-129 -146 149 0
-134 -127 129 0
-134 -137 139 0
-134 -147 149 0
-139 -128 129 0
-139 -133 134 0
-139 -148 149 0
-149 -130 129 0
-149 -135 134 0
-149 -140 139 0
-130 -131 135 0
-130 -136 140 0
-130 -141 145 0
-135 -127 130 0
-135 -137 140 0
-135 -142 145 0
-140 -128 130 0
-140 -133 135 0
-140 -143 145 0
-145 -129 130 0
-145 -134 135 0
-145 -139 140 0
6 2 0
-6 -2 0
11 3 0
-11 -3 0
16 4 0
-16 -4 0
21 5 0
-21 -5 0
2 6 0
-2 -6 0
12 8 0
-12 -8 0
17 9 0
-17 -9 0
22 10 0
-22 -10 0
3 11 0
-3 -11 0
8 12 0
-8 -12 0
18 14 0
-18 -14 0
23 15 0
-23 -15 0
4 16 0
-4 -16 0
9 17 0
-9 -17 0
14 18 0
-14 -18 0
24 20 0
-24 -20 0
5 21 0
-5 -21 0
10 22 0
-10 -22 0
15 23 0
-15 -23 0
20 24 0
-20 -24 0
31 27 0
-31 -27 0
36 28 0
-36 -28 0
41 29 0
-41 -29 0
46 30 0
-46 -30 0
27 31 0
-27 -31 0
37 33 0
-37 -33 0
42 34 0
-42 -34 0
47 35 0
-47 -35 0
28 36 0
-28 -36 0
33 37 0
-33 -37 0
43 39 0
-43 -39 0
48 40 0
-48 -40 0
29 41 0
-29 -41 0
34 42 0
-34 -42 0
39 43 0
-39 -43 0
49 45 0
-49 -45 0
30 46 0
-30 -46 0
35 47 0
-35 -47 0
40 48 0
-40 -48 0
45 49 0
-45 -49 0
56 52 0
-56 -52 0
61 53 0
-61 -53 0
66 54 0
-66 -54 0
71 55 0
-71 -55 0
52 56 0
-52 -56 0
62 58 0
-62 -58 0
67 59 0
-67 -59 0
72 60 0
-72 -60 0
53 61 0
-53 -61 0
58 62 0
-58 -62 0
68 64 0
-68 -64 0
73 65 0
-73 -65 0
54 66 0
-54 -66 0
59 67 0
-59 -67 0
64 68 0
-64 -68 0
74 70 0
-74 -70 0
55 71 0
-55 -71 0
60 72 0
-60 -72 0
65 73 0
-65 -73 0
70 74 0
-70 -74 0
81 77 0
-81 -77 0
86 78 0
-86 -78 0
91 79 0
-91 -79 0
96 80 0
-96 -80 0
77 81 0
-77 -81 0
87 83 0
-87 -83 0
92 84 0
-92 -84 0
97 85 0
-97 -85 0
78 86 0
-78 -86 0
83 87 0
-83 -87 0
93 89 0
-93 -89 0
98 90 0
-98 -90 0
79 91 0
-79 -91 0
84 92 0
-84 -92 0
89 93 0
-89 -93 0
99 95 0
-99 -95 0
80 96 0
-80 -96 0
85 97 0
-85 -97 0
90 98 0
-90 -98 0
95 99 0
-95 -99 0
106 102 0
-106 -102 0
111 103 0
-111 -103 0
116 104 0
-116 -104 0
121 105 0
-121 -105 0
102 106 0
-102 -106 0
112 108 0
-112 -108 0
117 109 0
-117 -109 0
122 110 0
-122 -110 0
103 111 0
-103 -111 0
108 112 0
-108 -112 0
118 114 0
-118 -114 0
123 115 0
-123 -115 0
104 116 0
-104 -116 0
109 117 0
-109 -117 0
114 118 0
-114 -118 0
124 120 0
-124 -120 0
105 121 0
-105 -121 0
110 122 0
-110 -122 0
115 123 0
-115 -123 0
120 124 0
-120 -124 0
131 127 0
-131 -127 0
136 128 0
-136 -128 0
141 129 0
-141 -129 0
146 130 0
-146 -130 0
127 131 0
-127 -131 0
137 133 0
-137 -133 0
142 134 0
-142 -134 0
147 135 0
-147 -135 0
128 136 0
-128 -136 0
133 137 0
-133 -137 0
143 139 0
-143 -139 0
148 140 0
-148 -140 0
129 141 0
-129 -141 0
134 142 0
-134 -142 0
139 143 0
-139 -143 0
149 145 0
-149 -145 0
130 146 0
-130 -146 0
135 147 0
-135 -147 0
140 148 0
-140 -148 0
145 149 0
-145 -149 0
-226 -234 0
-226 -242 0
-226 -250 0
-226 -258 0
-234 -242 0
-234 -250 0
-234 -258 0
-242 -250 0
-242 -258 0
-250 -258 0
-227 -235 0
-227 -243 0
-227 -251 0
-227 -259 0
-235 -243 0
-235 -251 0
-235 -259 0
-243 -251 0
-243 -259 0
-251 -259 0
-228 -236 0
-228 -244 0
-228 -252 0
-228 -260 0
-236 -244 0
-236 -252 0
-236 -260 0
-244 -252 0
-244 -260 0
-252 -260 0
-229 -237 0
-229 -245 0
-229 -253 0
-229 -261 0
-237 -245 0
-237 -253 0
-237 -261 0
-245 -253 0
-245 -261 0
-253 -261 0
-230 -238 0
-230 -246 0
-230 -254 0
-230 -262 0
-238 -246 0
-238 -254 0
-238 -262 0
-246 -254 0
-246 -262 0
-254 -262 0
-231 -239 0
-231 -247 0
-231 -255 0
-231 -263 0
-239 -247 0
-239 -255 0
-239 -263 0
-247 -255 0
-247 -263 0
-255 -263 0
-232 -240 0
-232 -248 0
-232 -256 0
-232 -264 0
-240 -248 0
-240 -256 0
-240 -264 0
-248 -256 0
-248 -264 0
-256 -264 0
-233 -241 0
-233 -249 0
-233 -257 0
-233 -265 0
-241 -249 0
-241 -257 0
-241 -265 0
-249 -257 0
-249 -265 0
-257 -265 0
226 234 242 250 258 0
227 235 243 251 259 0
228 236 244 252 260 0
229 237 245 253 261 0
230 238 246 254 262 0
231 239 247 255 263 0
232 240 248 256 264 0
233 241 249 257 265 0
-226 -6 -31 0
-226 6 31 0
-234 -31 -56 0
-234 31 56 0
-242 -56 -81 0
-242 56 81 0
-250 -81 -106 0
-250 81 106 0
-258 -106 -131 0
-258 106 131 0
-227 -11 -36 0
-227 11 36 0
-235 -36 -61 0
-235 36 61 0
-243 -61 -86 0
-243 61 86 0
-251 -86 -111 0
-251 86 111 0
-259 -111 -136 0
-259 111 136 0
-228 -16 -41 0
-228 16 41 0
-236 -41 -66 0
-236 41 66 0
-244 -66 -91 0
-244 66 91 0
-252 -91 -116 0
-252 91 116 0
-260 -116 -141 0
-260 116 141 0
-229 -21 -46 0
-229 21 46 0
-237 -46 -71 0
-237 46 71 0
-245 -71 -96 0
-245 71 96 0
-253 -96 -121 0
-253 96 121 0
-261 -121 -146 0
-261 121 146 0
-230 -12 -37 0
-230 12 37 0
-238 -37 -62 0
-238 37 62 0
-246 -62 -87 0
-246 62 87 0
-254 -87 -112 0
-254 87 112 0
-262 -112 -137 0
-262 112 137 0
-231 -17 -42 0
-231 17 42 0
-239 -42 -67 0
-239 42 67 0
-247 -67 -92 0
-247 67 92 0
-255 -92 -117 0
-255 92 117 0
-263 -117 -142 0
-263 117 142 0
-232 -22 -47 0
-232 22 47 0
-240 -47 -72 0
-240 47 72 0
-248 -72 -97 0
-248 72 97 0
-256 -97 -122 0
-256 97 122 0
-264 -122 -147 0
-264 122 147 0
-233 -24 -49 0
-233 24 49 0
-241 -49 -74 0
-241 49 74 0
-249 -74 -99 0
-249 74 99 0
-257 -99 -124 0
-257 99 124 0
-265 -124 -149 0
-265 124 149 0
-6 31 226 0
6 -31 226 0
-11 36 227 0
11 -36 227 0
-16 41 228 0
16 -41 228 0
-21 46 229 0
21 -46 229 0
-12 37 230 0
12 -37 230 0
-17 42 231 0
17 -42 231 0
-22 47 232 0
22 -47 232 0
-18 43 0
18 -43 0
-23 48 0
23 -48 0
-24 49 233 0
24 -49 233 0
-31 56 234 0
31 -56 234 0
-36 61 235 0
36 -61 235 0
-41 66 236 0
41 -66 236 0
-46 71 237 0
46 -71 237 0
-37 62 238 0
37 -62 238 0
-42 67 239 0
42 -67 239 0
-47 72 240 0
47 -72 240 0
-43 68 0
43 -68 0
-48 73 0
48 -73 0
-49 74 241 0
49 -74 241 0
-56 81 242 0
56 -81 242 0
-61 86 243 0
61 -86 243 0
-66 91 244 0
66 -91 244 0
-71 96 245 0
71 -96 245 0
-62 87 246 0
62 -87 246 0
-67 92 247 0
67 -92 247 0
-72 97 248 0
72 -97 248 0
-68 93 0
68 -93 0
-73 98 0
73 -98 0
-74 99 249 0
74 -99 249 0
-81 106 250 0
81 -106 250 0
-86 111 251 0
86 -111 251 0
-91 116 252 0
91 -116 252 0
-96 121 253 0
96 -121 253 0
-87 112 254 0
87 -112 254 0
-92 117 255 0
92 -117 255 0
-97 122 256 0
97 -122 256 0
-93 118 0
93 -118 0
-98 123 0
98 -123 0
-99 124 257 0
99 -124 257 0
-106 131 258 0
106 -131 258 0
-111 136 259 0
111 -136 259 0
-116 141 260 0
116 -141 260 0
-121 146 261 0
121 -146 261 0
-112 137 262 0
112 -137 262 0
-117 142 263 0
117 -142 263 0
-122 147 264 0
122 -147 264 0
-118 143 0
118 -143 0
-123 148 0
123 -148 0
-124 149 265 0
124 -149 265 0
-226 -227 0
-226 -228 0
-226 -229 0
-226 -230 0
-226 -231 0
-226 -232 0
-227 -226 0
-227 -228 0
-227 -229 0
-227 -230 0
-228 -226 0
-228 -227 0
-228 -229 0
-228 -231 0
-228 -233 0
-229 -226 0
-229 -227 0
-229 -228 0
-229 -232 0
-229 -233 0
-230 -226 0
-230 -227 0
-230 -231 0
-230 -232 0
-231 -226 0
-231 -228 0
-231 -230 0
-231 -232 0
-231 -233 0
-232 -226 0
-232 -229 0
-232 -230 0
-232 -231 0
-232 -233 0
-233 -228 0
-233 -229 0
-233 -231 0
-233 -232 0
-234 -235 0
-234 -236 0
-234 -237 0
-234 -238 0
-234 -239 0
-234 -240 0
-235 -234 0
-235 -236 0
-235 -237 0
-235 -238 0
-236 -234 0
-236 -235 0
-236 -237 0
-236 -239 0
-236 -241 0
-237 -234 0
-237 -235 0
-237 -236 0
-237 -240 0
-237 -241 0
-238 -234 0
-238 -235 0
-238 -239 0
-238 -240 0
-239 -234 0
-239 -236 0
-239 -238 0
-239 -240 0
-239 -241 0
-240 -234 0
-240 -237 0
-240 -238 0
-240 -239 0
-240 -241 0
-241 -236 0
-241 -237 0
-241 -239 0
-241 -240 0
-242 -243 0
-242 -244 0
-242 -245 0
-242 -246 0
-242 -247 0
-242 -248 0
-243 -242 0
-243 -244 0
-243 -245 0
-243 -246 0
-244 -242 0
-244 -243 0
-244 -245 0
-244 -247 0
-244 -249 0
-245 -242 0
-245 -243 0
-245 -244 0
-245 -248 0
-245 -249 0
-246 -242 0
-246 -243 0
-246 -247 0
-246 -248 0
-247 -242 0
-247 -244 0
-247 -246 0
-247 -248 0
-247 -249 0
-248 -242 0
-248 -245 0
-248 -246 0
-248 -247 0
-248 -249 0
-249 -244 0
-249 -245 0
-249 -247 0
-249 -248 0
-250 -251 0
-250 -252 0
-250 -253 0
-250 -254 0
-250 -255 0
-250 -256 0
-251 -250 0
-251 -252 0
-251 -253 0
-251 -254 0
-252 -250 0
-252 -251 0
-252 -253 0
-252 -255 0
-252 -257 0
-253 -250 0
-253 -251 0
-253 -252 0
-253 -256 0
-253 -257 0
-254 -250 0
-254 -251 0
-254 -255 0
-254 -256 0
-255 -250 0
-255 -252 0
-255 -254 0
-255 -256 0
-255 -257 0
-256 -250 0
-256 -253 0
-256 -254 0
-256 -255 0
-256 -257 0
-257 -252 0
-257 -253 0
-257 -255 0
-257 -256 0
-258 -259 0
-258 -260 0
-258 -261 0
-258 -262 0
-258 -263 0
-258 -264 0
-259 -258 0
-259 -260 0
-259 -261 0
-259 -262 0
-260 -258 0
-260 -259 0
-260 -261 0
-260 -263 0
-260 -265 0
-261 -258 0
-261 -259 0
-261 -260 0
-261 -264 0
-261 -265 0
-262 -258 0
-262 -259 0
-262 -263 0
-262 -264 0
-263 -258 0
-263 -260 0
-263 -262 0
-263 -264 0
-263 -265 0
-264 -258 0
-264 -261 0
-264 -262 0
-264 -263 0
-264 -265 0
-265 -260 0
-265 -261 0
-265 -263 0
-265 -264 0